201
2549
147
0 1
0 3
0 11
0 12
0 34
0 85
0 96
0 104
0 110
0 123
1 3
1 11
1 12
1 17
1 19
1 21
1 25
1 27
1 29
1 34
1 35
1 36
1 85
1 96
1 104
1 110
1 123
1 125
2 5
2 6
2 9
2 13
2 14
2 18
2 22
2 23
2 39
2 40
2 43
2 84
2 87
2 88
2 91
2 92
2 97
2 98
2 100
2 103
2 142
2 157
2 176
2 192
3 11
3 12
3 17
3 19
3 21
3 25
3 27
3 29
3 34
3 35
3 36
3 49
3 51
3 52
3 54
3 62
3 63
3 67
3 69
3 70
3 71
3 85
3 91
3 96
3 98
3 103
3 104
3 110
3 123
3 125
3 137
3 139
3 141
3 155
3 174
3 187
3 189
4 7
4 8
4 10
4 15
4 20
4 24
4 26
4 28
4 30
4 37
4 38
4 41
4 42
4 44
4 45
4 86
4 99
4 151
5 6
5 9
5 13
5 14
5 18
5 22
5 23
5 39
5 40
5 43
5 97
5 98
5 100
5 103
5 142
5 157
5 176
5 192
6 9
6 13
6 14
6 18
6 22
6 23
6 39
6 40
6 43
6 65
6 90
6 93
6 94
6 101
6 102
6 105
6 106
6 107
7 8
7 10
7 15
7 20
7 24
7 26
7 28
7 30
7 37
7 38
7 41
7 42
7 44
7 45
7 54
7 67
7 78
7 79
7 82
7 86
7 91
7 99
7 103
7 123
7 129
7 130
7 131
7 151
7 161
8 10
8 15
8 20
8 24
8 26
8 28
8 30
8 37
8 38
8 41
8 42
8 44
8 45
8 54
8 67
8 78
8 79
8 82
8 86
8 91
8 99
8 103
8 151
8 161
9 13
9 14
9 18
9 22
9 23
9 39
9 40
9 43
9 65
9 90
9 93
9 94
9 101
9 102
9 105
9 106
9 107
9 109
9 112
9 114
9 115
9 140
9 144
9 145
9 156
9 160
9 178
9 195
9 196
10 15
10 20
10 24
10 26
10 28
10 30
10 37
10 38
10 41
10 42
10 44
10 45
10 69
10 70
10 71
10 80
10 81
10 86
10 99
10 126
10 132
10 151
10 162
10 170
10 172
10 174
10 179
10 185
10 187
10 189
10 197
11 12
11 17
11 19
11 21
11 25
11 27
11 29
11 34
11 35
11 36
11 50
11 53
11 55
11 56
11 57
11 58
11 66
11 68
11 85
11 92
11 96
11 104
11 110
11 123
11 125
12 17
12 19
12 21
12 25
12 27
12 29
12 34
12 35
12 36
12 50
12 53
12 55
12 56
12 57
12 58
12 66
12 68
12 85
12 92
12 96
12 104
12 110
12 123
12 125
12 140
12 142
12 143
12 144
12 146
13 14
13 18
13 22
13 23
13 39
13 40
13 43
13 65
13 79
13 90
13 93
13 94
13 101
13 102
13 105
13 106
13 107
13 111
13 113
13 117
13 119
14 18
14 22
14 23
14 39
14 40
14 43
14 44
14 57
14 65
14 82
14 90
14 93
14 94
14 101
14 102
14 105
14 106
14 107
14 118
14 120
14 130
14 131
14 199
15 20
15 24
15 26
15 28
15 30
15 37
15 38
15 41
15 42
15 44
15 45
15 69
15 70
15 71
15 80
15 81
15 86
15 99
15 126
15 132
15 151
16 18
16 22
16 23
16 32
16 46
16 59
16 134
17 19
17 21
17 25
17 27
17 29
17 35
17 36
17 104
17 125
18 22
18 23
18 32
18 39
18 40
18 43
18 46
18 59
18 84
18 87
18 88
18 91
18 92
18 97
18 98
18 100
18 103
18 134
18 142
18 157
18 176
18 192
19 21
19 25
19 27
19 29
19 35
19 36
19 49
19 51
19 52
19 54
19 104
19 125
19 137
19 139
19 141
19 155
19 174
19 187
19 189
20 24
20 26
20 28
20 30
20 37
20 38
20 41
20 42
20 44
20 45
20 48
20 99
20 136
20 152
21 25
21 27
21 29
21 35
21 36
21 49
21 51
21 52
21 54
21 62
21 63
21 67
21 69
21 70
21 71
21 91
21 98
21 103
21 104
21 125
21 137
21 139
21 141
21 155
21 174
21 187
21 189
22 23
22 32
22 39
22 40
22 43
22 46
22 59
22 97
22 98
22 100
22 103
22 134
22 142
22 157
22 176
22 192
23 32
23 39
23 40
23 43
23 46
23 59
23 134
24 26
24 28
24 30
24 37
24 38
24 41
24 42
24 44
24 45
24 48
24 54
24 67
24 78
24 79
24 82
24 91
24 99
24 103
24 123
24 129
24 130
24 131
24 136
24 152
24 161
25 27
25 29
25 35
25 36
25 50
25 53
25 55
25 56
25 57
25 58
25 66
25 68
25 92
25 104
25 125
25 140
25 142
25 143
25 144
25 146
25 148
25 151
25 156
25 157
25 158
25 159
25 160
25 196
25 199
26 28
26 30
26 37
26 38
26 41
26 42
26 44
26 45
26 48
26 54
26 67
26 78
26 79
26 82
26 91
26 99
26 103
26 136
26 152
26 161
27 29
27 35
27 36
27 50
27 53
27 55
27 56
27 57
27 58
27 66
27 68
27 92
27 104
27 125
28 29
28 30
28 37
28 38
28 41
28 42
28 44
28 45
28 48
28 58
28 69
28 70
28 71
28 80
28 81
28 99
28 126
28 132
28 136
28 145
28 147
28 152
28 164
28 182
28 192
28 193
28 194
28 195
28 200
29 35
29 36
29 50
29 53
29 55
29 56
29 57
29 58
29 66
29 68
29 70
29 81
29 92
29 104
29 125
29 133
29 138
29 145
29 147
29 164
29 166
29 182
29 192
29 193
29 194
29 195
29 200
30 37
30 38
30 41
30 42
30 44
30 45
30 48
30 69
30 70
30 71
30 80
30 81
30 99
30 126
30 132
30 136
30 152
31 34
31 39
31 40
31 43
31 72
31 109
31 121
31 133
31 149
31 168
31 183
32 33
32 35
32 36
32 46
32 59
32 62
32 73
32 125
32 134
32 169
32 184
33 35
33 36
33 62
33 73
33 125
33 169
33 184
34 39
34 40
34 43
34 72
34 85
34 96
34 104
34 109
34 110
34 121
34 123
34 133
34 149
34 168
34 183
35 36
35 62
35 73
35 104
35 125
35 169
35 184
36 49
36 51
36 52
36 54
36 62
36 73
36 104
36 125
36 137
36 139
36 141
36 155
36 169
36 174
36 184
36 187
36 189
37 38
37 41
37 42
37 44
37 45
37 75
37 76
37 77
37 99
37 114
37 122
37 127
37 128
37 138
37 154
37 156
37 171
37 173
37 188
37 191
38 41
38 42
38 44
38 45
38 99
39 40
39 43
39 72
39 109
39 121
39 133
39 149
39 168
39 183
40 43
40 65
40 72
40 90
40 93
40 94
40 101
40 102
40 105
40 106
40 107
40 109
40 121
40 133
40 149
40 168
40 183
41 42
41 44
41 45
41 54
41 67
41 78
41 79
41 82
41 91
41 99
41 103
41 123
41 129
41 130
41 131
41 161
42 44
42 45
42 54
42 67
42 78
42 79
42 82
42 91
42 99
42 103
42 161
43 65
43 72
43 90
43 93
43 94
43 101
43 102
43 105
43 106
43 107
43 109
43 112
43 114
43 115
43 121
43 133
43 140
43 144
43 145
43 149
43 156
43 160
43 168
43 178
43 183
43 195
43 196
44 45
44 54
44 57
44 67
44 78
44 79
44 82
44 91
44 94
44 99
44 103
44 107
44 118
44 120
44 123
44 129
44 130
44 131
44 161
44 199
45 69
45 70
45 71
45 80
45 81
45 99
45 126
45 132
46 47
46 48
46 59
46 61
46 84
46 122
46 134
46 135
46 136
46 150
46 152
46 170
46 185
47 48
47 59
47 61
47 84
47 122
47 134
47 135
47 136
47 150
47 152
47 170
47 185
48 59
48 61
48 84
48 122
48 134
48 135
48 136
48 150
48 152
48 170
48 185
49 51
49 52
49 54
49 137
49 139
49 141
49 155
49 174
49 187
49 189
50 53
50 55
50 56
50 57
50 58
50 66
50 68
50 92
50 104
50 111
50 133
50 138
50 145
50 147
50 149
50 154
50 161
50 166
50 168
50 169
50 171
50 173
50 175
50 183
50 184
50 186
50 188
50 190
50 191
51 52
51 54
51 62
51 63
51 67
51 69
51 70
51 71
51 91
51 98
51 103
51 137
51 139
51 141
51 155
51 174
51 187
51 189
52 54
52 60
52 65
52 76
52 77
52 128
52 137
52 139
52 141
52 155
52 174
52 187
52 189
52 191
53 55
53 56
53 57
53 58
53 66
53 68
53 92
53 104
53 140
53 142
53 143
53 144
53 146
53 148
53 151
53 156
53 157
53 158
53 159
53 160
53 196
53 199
54 62
54 63
54 67
54 69
54 70
54 71
54 78
54 79
54 82
54 91
54 98
54 103
54 137
54 139
54 141
54 155
54 161
54 174
54 187
54 189
55 56
55 57
55 58
55 66
55 68
55 92
55 104
56 57
56 58
56 66
56 68
56 92
56 104
56 140
56 142
56 143
56 144
56 146
57 58
57 66
57 68
57 82
57 92
57 94
57 104
57 107
57 118
57 120
57 130
57 131
57 140
57 142
57 143
57 144
57 146
57 148
57 151
57 156
57 157
57 158
57 159
57 160
57 196
57 199
58 66
58 68
58 70
58 81
58 92
58 104
58 111
58 140
58 142
58 143
58 144
58 145
58 146
58 147
58 149
58 154
58 161
58 162
58 164
58 165
58 182
58 192
58 193
58 194
58 195
58 200
59 61
59 64
59 66
59 68
59 75
59 84
59 87
59 92
59 122
59 134
59 135
59 136
59 150
59 152
59 154
59 170
59 171
59 185
60 65
60 76
60 77
60 83
60 85
60 86
60 89
60 90
60 93
60 94
60 95
60 96
60 99
60 104
60 108
60 110
60 123
60 128
60 141
60 148
60 151
60 167
60 182
60 191
61 64
61 66
61 68
61 75
61 84
61 87
61 92
61 122
61 134
61 135
61 136
61 150
61 152
61 154
61 170
61 171
61 185
62 63
62 67
62 69
62 70
62 71
62 72
62 73
62 74
62 91
62 98
62 103
62 109
62 111
62 112
62 121
62 124
62 125
62 133
62 139
62 149
62 168
62 169
62 183
62 184
62 186
62 189
63 67
63 69
63 70
63 71
63 72
63 73
63 74
63 91
63 98
63 103
63 109
63 111
63 112
63 121
63 124
63 125
63 133
63 139
63 149
63 168
63 169
63 183
63 184
63 186
63 189
64 66
64 68
64 75
64 84
64 87
64 92
64 122
64 154
64 171
65 76
65 77
65 83
65 85
65 86
65 89
65 90
65 93
65 94
65 101
65 102
65 105
65 106
65 107
65 128
65 141
65 191
66 68
66 75
66 84
66 87
66 92
66 104
66 122
66 140
66 142
66 143
66 144
66 146
66 148
66 151
66 154
66 156
66 157
66 158
66 159
66 160
66 171
66 196
66 199
67 69
67 70
67 71
67 78
67 79
67 82
67 91
67 98
67 103
67 139
67 161
67 189
68 75
68 84
68 87
68 92
68 104
68 122
68 154
68 171
69 70
69 71
69 80
69 81
69 91
69 98
69 103
69 118
69 126
69 132
69 139
69 180
69 189
69 196
69 198
69 199
70 71
70 80
70 81
70 91
70 98
70 103
70 126
70 132
70 139
70 145
70 147
70 164
70 182
70 189
70 192
70 193
70 194
70 195
70 200
71 80
71 81
71 91
71 98
71 103
71 126
71 132
71 139
71 189
72 73
72 74
72 109
72 111
72 112
72 121
72 124
72 125
72 133
72 149
72 168
72 169
72 183
72 184
72 186
73 74
73 109
73 111
73 112
73 121
73 124
73 125
73 133
73 149
73 168
73 169
73 183
73 184
73 186
74 109
74 111
74 112
74 121
74 124
74 125
74 133
74 149
74 168
74 169
74 183
74 184
74 186
75 76
75 77
75 84
75 87
75 92
75 114
75 122
75 127
75 128
75 138
75 154
75 156
75 171
75 173
75 188
75 191
76 77
76 114
76 122
76 127
76 128
76 138
76 141
76 154
76 156
76 171
76 173
76 188
76 191
77 83
77 85
77 86
77 89
77 90
77 93
77 94
77 114
77 122
77 127
77 128
77 138
77 141
77 154
77 156
77 171
77 173
77 188
77 191
78 79
78 82
78 91
78 103
78 161
79 82
79 91
79 93
79 103
79 105
79 106
79 111
79 113
79 117
79 119
79 123
79 129
79 130
79 131
79 161
80 81
80 118
80 126
80 132
80 180
80 196
80 198
80 199
81 126
81 132
81 145
81 147
81 164
81 182
81 192
81 193
81 194
81 195
81 200
82 91
82 94
82 103
82 107
82 118
82 120
82 123
82 129
82 130
82 131
82 161
82 199
83 85
83 86
83 89
83 90
83 93
83 94
83 95
83 96
83 99
83 104
83 108
83 110
83 123
83 148
83 151
83 167
83 182
84 87
84 88
84 91
84 92
84 97
84 98
84 103
84 122
84 134
84 135
84 136
84 150
84 152
84 154
84 170
84 171
84 185
85 86
85 89
85 90
85 93
85 94
85 95
85 96
85 99
85 104
85 108
85 110
85 123
85 148
85 151
85 167
85 182
86 89
86 90
86 93
86 94
86 95
86 96
86 99
86 104
86 108
86 110
86 123
86 148
86 151
86 167
86 182
87 88
87 91
87 92
87 97
87 98
87 103
87 122
87 154
87 171
88 91
88 92
88 97
88 98
88 103
89 90
89 93
89 94
90 93
90 94
90 101
90 102
90 105
90 106
90 107
91 92
91 97
91 98
91 103
91 139
91 161
91 189
92 97
92 98
92 103
92 104
92 122
92 154
92 171
93 94
93 101
93 102
93 105
93 106
93 107
93 111
93 113
93 117
93 119
94 101
94 102
94 105
94 106
94 107
94 118
94 120
94 130
94 131
94 199
95 96
95 99
95 104
95 108
95 110
95 123
95 148
95 151
95 167
95 182
96 99
96 104
96 108
96 110
96 123
96 148
96 151
96 167
96 182
97 98
97 100
97 103
97 142
97 157
97 176
97 192
98 100
98 103
98 139
98 142
98 157
98 176
98 189
98 192
99 104
99 108
99 110
99 123
99 148
99 151
99 167
99 182
100 103
100 142
100 157
100 176
100 192
101 102
101 105
101 106
101 107
102 105
102 106
102 107
102 109
102 112
102 114
102 115
102 140
102 144
102 145
102 156
102 160
102 178
102 195
102 196
103 139
103 142
103 157
103 161
103 176
103 189
103 192
104 108
104 110
104 123
104 125
104 148
104 151
104 167
104 182
105 106
105 107
105 111
105 113
105 117
105 119
105 150
105 152
105 153
105 155
105 163
105 166
106 107
106 111
106 113
106 117
106 119
107 118
107 120
107 130
107 131
107 199
108 110
108 116
108 123
108 129
108 142
108 148
108 151
108 157
108 158
108 167
108 176
108 182
108 192
108 193
109 111
109 112
109 114
109 115
109 121
109 122
109 124
109 125
109 126
109 127
109 128
109 132
109 133
109 140
109 144
109 145
109 149
109 156
109 160
109 168
109 169
109 178
109 183
109 184
109 186
109 195
109 196
110 116
110 123
110 129
110 142
110 148
110 151
110 157
110 158
110 167
110 176
110 182
110 192
110 193
111 112
111 113
111 117
111 119
111 121
111 124
111 125
111 133
111 138
111 149
111 154
111 161
111 162
111 164
111 165
111 168
111 169
111 171
111 173
111 175
111 183
111 184
111 186
111 188
111 190
111 191
112 114
112 115
112 121
112 122
112 124
112 125
112 126
112 127
112 128
112 132
112 133
112 140
112 144
112 145
112 149
112 156
112 160
112 168
112 169
112 178
112 183
112 184
112 186
112 195
112 196
113 117
113 119
113 126
113 134
113 135
113 136
113 137
113 139
113 141
113 150
113 152
113 153
113 155
113 163
113 166
113 170
113 172
113 174
113 185
113 187
113 189
114 115
114 121
114 122
114 124
114 125
114 126
114 127
114 128
114 132
114 138
114 140
114 144
114 145
114 154
114 156
114 160
114 171
114 173
114 178
114 188
114 191
114 195
114 196
115 121
115 122
115 124
115 125
115 126
115 127
115 128
115 132
115 140
115 144
115 145
115 156
115 160
115 178
115 195
115 196
116 123
116 129
116 142
116 148
116 151
116 157
116 158
116 167
116 176
116 182
116 192
116 193
117 119
117 150
117 152
117 153
117 155
117 163
117 166
118 120
118 130
118 131
118 168
118 169
118 170
118 171
118 172
118 173
118 174
118 175
118 179
118 180
118 181
118 196
118 198
118 199
120 130
120 131
120 199
121 122
121 124
121 125
121 126
121 127
121 128
121 132
121 133
121 140
121 149
121 156
121 168
121 169
121 183
121 184
121 186
122 124
122 125
122 126
122 127
122 128
122 132
122 134
122 135
122 136
122 138
122 140
122 150
122 152
122 154
122 156
122 170
122 171
122 173
122 185
122 188
122 191
123 129
123 130
123 131
123 142
123 148
123 151
123 157
123 158
123 167
123 176
123 182
123 192
123 193
124 125
124 126
124 127
124 128
124 132
124 133
124 140
124 149
124 156
124 168
124 169
124 183
124 184
124 186
125 126
125 127
125 128
125 132
125 133
125 140
125 149
125 156
125 168
125 169
125 183
125 184
125 186
126 127
126 128
126 132
126 134
126 135
126 136
126 137
126 139
126 140
126 141
126 150
126 152
126 153
126 155
126 156
126 162
126 170
126 172
126 174
126 179
126 185
126 187
126 189
126 197
127 128
127 132
127 138
127 140
127 154
127 156
127 171
127 173
127 188
127 191
128 132
128 138
128 140
128 141
128 154
128 156
128 171
128 173
128 188
128 191
129 130
129 131
129 142
129 148
129 151
129 157
129 158
129 167
129 176
129 182
129 192
129 193
130 131
130 199
131 168
131 169
131 170
131 171
131 172
131 173
131 174
131 175
131 179
131 180
131 181
131 199
132 140
132 156
133 138
133 145
133 147
133 149
133 154
133 161
133 166
133 168
133 169
133 171
133 173
133 175
133 183
133 184
133 186
133 188
133 190
133 191
134 135
134 136
134 137
134 139
134 141
134 150
134 152
134 153
134 155
134 170
134 172
134 174
134 185
134 187
134 189
135 136
135 137
135 139
135 141
135 150
135 152
135 153
135 155
135 170
135 172
135 174
135 185
135 187
135 189
136 137
136 139
136 141
136 150
136 152
136 153
136 155
136 170
136 172
136 174
136 185
136 187
136 189
137 139
137 141
137 150
137 152
137 153
137 155
137 170
137 172
137 174
137 185
137 187
137 189
138 145
138 147
138 149
138 154
138 156
138 161
138 166
138 168
138 169
138 171
138 173
138 175
138 183
138 184
138 186
138 188
138 190
138 191
139 141
139 150
139 152
139 153
139 155
139 170
139 172
139 174
139 185
139 187
139 189
140 142
140 143
140 144
140 145
140 146
140 148
140 151
140 156
140 157
140 158
140 159
140 160
140 178
140 195
140 196
140 199
141 150
141 152
141 153
141 155
141 170
141 172
141 174
141 185
141 187
141 189
141 191
142 143
142 144
142 146
142 148
142 151
142 156
142 157
142 158
142 159
142 160
142 167
142 176
142 182
142 192
142 193
142 196
142 199
143 144
143 146
143 148
143 151
143 156
143 157
143 158
143 159
143 160
143 196
143 199
144 145
144 146
144 148
144 151
144 156
144 157
144 158
144 159
144 160
144 178
144 195
144 196
144 199
145 147
145 156
145 160
145 164
145 166
145 167
145 176
145 177
145 178
145 182
145 192
145 193
145 194
145 195
145 196
145 200
147 164
147 166
147 182
147 192
147 193
147 194
147 195
147 200
148 151
148 156
148 157
148 158
148 159
148 160
148 167
148 176
148 182
148 192
148 193
148 196
148 199
149 154
149 161
149 162
149 164
149 165
149 168
149 169
149 171
149 173
149 175
149 183
149 184
149 186
149 188
149 190
149 191
150 152
150 153
150 155
150 163
150 166
150 170
150 172
150 174
150 185
150 187
150 189
151 156
151 157
151 158
151 159
151 160
151 167
151 176
151 182
151 192
151 193
151 196
151 199
152 153
152 155
152 163
152 166
152 170
152 172
152 174
152 185
152 187
152 189
153 155
153 163
153 166
153 170
153 172
153 174
153 185
153 187
153 189
154 156
154 161
154 162
154 164
154 165
154 168
154 169
154 171
154 173
154 175
154 183
154 184
154 186
154 188
154 190
154 191
155 163
155 166
155 170
155 172
155 174
155 185
155 187
155 189
156 157
156 158
156 159
156 160
156 171
156 173
156 178
156 188
156 191
156 195
156 196
156 199
157 158
157 159
157 160
157 167
157 176
157 182
157 192
157 193
157 196
157 199
158 159
158 160
158 167
158 176
158 182
158 192
158 193
158 196
158 199
159 160
159 196
159 199
160 178
160 195
160 196
160 199
161 162
161 164
161 165
161 168
161 169
161 171
161 173
161 175
161 183
161 184
161 186
161 188
161 190
161 191
162 164
162 165
162 170
162 172
162 174
162 179
162 185
162 187
162 189
162 197
163 166
164 165
164 182
164 192
164 193
164 194
164 195
164 200
167 176
167 177
167 178
167 182
167 192
167 193
167 194
167 195
168 169
168 170
168 171
168 172
168 173
168 174
168 175
168 179
168 180
168 181
168 183
168 184
168 186
168 188
168 190
168 191
169 170
169 171
169 172
169 173
169 174
169 175
169 179
169 180
169 181
169 183
169 184
169 186
169 188
169 190
169 191
170 171
170 172
170 173
170 174
170 175
170 179
170 180
170 181
170 185
170 187
170 189
170 197
171 172
171 173
171 174
171 175
171 179
171 180
171 181
171 183
171 184
171 186
171 188
171 190
171 191
172 173
172 174
172 175
172 179
172 180
172 181
172 185
172 187
172 189
172 197
173 174
173 175
173 179
173 180
173 181
173 183
173 184
173 186
173 188
173 190
173 191
174 175
174 179
174 180
174 181
174 185
174 187
174 189
174 197
175 179
175 180
175 181
175 183
175 184
175 186
175 188
175 190
175 191
176 177
176 178
176 182
176 192
176 193
176 194
176 195
177 178
177 182
177 192
177 193
177 194
177 195
178 182
178 192
178 193
178 194
178 195
178 196
179 180
179 181
179 185
179 187
179 189
179 197
180 181
180 196
180 198
180 199
182 192
182 193
182 194
182 195
182 200
183 184
183 186
183 188
183 190
183 191
184 186
184 188
184 190
184 191
185 187
185 189
185 197
186 188
186 190
186 191
187 189
187 197
188 190
188 191
189 197
190 191
192 193
192 194
192 195
192 200
193 194
193 195
193 200
194 195
194 200
195 196
195 200
196 198
196 199
198 199
0
1
2
3 4
5
6 7
8 9
10 11
12 13
14
15
16
17
18 19
20 21
22
23
24 25
26
27
28 29
30
31 32
33 34
35
36 37
38
39
40 41
42 43
44
45
46
47
48
49
50 51
52
53
54
55
56
57 58
59 60
61 62
63
64
65 66
67
68
69
70
71
72
73
74
75
76
77
78
79 80
81 82
83
84 85
86
87
88
89
90
91
92
93
94
95
96
97
98 99
100
101
102 103
104 105
106
107
108 109
110
111 112
113
114
115
116
117
118 119
120
121
122 123
124
125 126
127
128
129
130
131 132
133 134
135
136
137 138
139 140
141 142
143
144 145
146
147
148 149
150
151 152
153 154
155 156
157
158
159
160 161
162 163
164
165 166
167 168
169 170
171 172
173 174
175
176
177
178
179
180
181
182 183
184 185
186
187 188
189 190
191 192
193
194
195 196
197
198
199 200
